CMD:
./solvers/bin/cadical --plain --no-reduce -t 1600 ./data/cnfs//qspiflash_dualflexpress_divfive-p007/qspiflash_dualflexpress_divfive-p007.4.cnf

c --- [ banner ] -------------------------------------------------------------
c 
c CaDiCaL SAT Solver
c Copyright (c) 2016-2024
c A. Biere, M. Fleury, N. Froleyks, K. Fazekas, F. Pollitt, T. Faller
c JKU Linz, University of Freiburg, TU Wien
c 
c Version 2.1.3 5296d3d2a9bf48c154ab2acb5e44625776d821bf
c g++ (Gentoo 12.3.1_p20230526 p2) 12.3.1 20230526 -Wall -Wextra -O3 -DNDEBUG
c Sat Aug 9 07:26:21 PDT 2025 Linux cedar2.int.cedar.computecanada.ca 5.14.0-362.24.2.el9_3.x86_64 x86_64
c 
c --- [ limit ] --------------------------------------------------------------
c 
c setting time limit to 1600 seconds real time (due to '-t 1600')
c 
c --- [ parsing input ] ------------------------------------------------------
c 
c reading DIMACS file from './data/cnfs//qspiflash_dualflexpress_divfive-p007/qspiflash_dualflexpress_divfive-p007.4.cnf'
c opening file to read './data/cnfs//qspiflash_dualflexpress_divfive-p007/qspiflash_dualflexpress_divfive-p007.4.cnf'
c found 'p cnf 15406 43584' header
c parsed 43584 clauses in 0.01 seconds process time
c 
c --- [ options ] ------------------------------------------------------------
c 
c   --compact=false                (different from default 'true')
c   --decompose=false              (different from default 'true')
c   --deduplicate=false            (different from default 'true')
c   --elim=false                   (different from default 'true')
c   --probe=false                  (different from default 'true')
c   --reduce=false                 (different from default 'true')
c   --subsume=false                (different from default 'true')
c   --ternary=false                (different from default 'true')
c   --transred=false               (different from default 'true')
c   --vivify=false                 (different from default 'true')
c 
c --- [ solving ] ------------------------------------------------------------
c 
c time measured in process time since initialization
c 
c  seconds  reductions  redundant  irredundant
c         MB    restarts       trail     variables
c          level   conflicts       glue       remaining
c 
c *  0.01 10  0 0   0    0    0  0% 0 32246 9027 59%
c {  0.01 10  0 0   0    0    0  0% 0 32246 9027 59%
c i  0.01 10 19 0   0    4    2 44% 0 32246 8579 56%
c i  0.01 10 18 0   0    5    2 45% 0 32246 8573 56%
c i  0.01 10 18 0   0    6    2 47% 0 32246 8521 55%
c i  0.01 10 50 0   0    9    4 56% 0 32246 8370 54%
c i  0.01 10 68 0   0   10    4 58% 0 32246 8364 54%
c }  0.01 10 83 0   0   12    4 63% 0 32246 8350 54%
c 0  0.01 10 83 0   0   12    4 63% 0 32246 8350 54%
c 
c --- [ result ] -------------------------------------------------------------
c 
s UNSATISFIABLE
c 
c --- [ run-time profiling ] -------------------------------------------------
c 
c process time taken by individual solving procedures
c (percentage relative to process time for solving)
c 
c         0.01  225.40% parse
c         0.00   96.63% search
c         0.00   59.01% lucky
c         0.00   37.25% unstable
c         0.00    0.00% simplify
c   =================================
c         0.00   29.38% solve
c 
c last line shows process time for solving
c (percentage relative to total process time)
c 
c --- [ statistics ] ---------------------------------------------------------
c 
c chronological:                11        91.67 %  of conflicts
c conflicts:                    12      4005.34    per second
c decisions:                   424    141522.03    per second
c fixed:                      7022        45.58 %  of all variables
c learned:                      11        91.67 %  per conflict
c learned_lits:                 15       100.00 %  learned literals
c minimized:                     0         0.00 %  learned literals
c shrunken:                      0         0.00 %  learned literals
c minishrunken:                  0         0.00 %  learned literals
c otfs:                          0         0.00 %  of conflict
c propagations:              19951         6.66 M  per second
c 
c seconds are measured in process time for solving
c 
c --- [ resources ] ----------------------------------------------------------
c 
c total process time since initialization:         0.01    seconds
c total real time since initialization:            0.01    seconds
c maximum resident set size of process:           29.27    MB
c 
c --- [ shutting down ] ------------------------------------------------------
c 
c exit 20
